(declare-const |phi_y:34:47:54| Int)
(declare-const havoc Int)
(declare-const |K:42:43:50| Int)
(declare-const |phi_y:32:49:56| Int)
(declare-const |y':37:44:51| Int)
(declare-const |x':36:45:52| Int)
(declare-const |phi_x:33:48:55| Int)
(declare-const |phi_x:35:46:53| Int)
(declare-const |havoc:2| Int)
(assert (and (= (+ (- |havoc:2|) havoc) 0) (<= (- |havoc:2|) 0)
               (or (not (and (<= (- |K:42:43:50|) 0) (<= |K:42:43:50| 0)))
                     (= (+ |y':37:44:51| |K:42:43:50| (- |havoc:2|)) 0))
               (or (not (<= (+ (- |K:42:43:50|) 1) 0))
                     (= (+ (* 2 |y':37:44:51|) (* 2 |K:42:43:50|)
                             (- |havoc:2|) (- havoc)) 0))
               (or (not (and (<= (- |K:42:43:50|) 0) (<= |K:42:43:50| 0)))
                     (= (+ |x':36:45:52| |K:42:43:50| (- havoc)) 0))
               (or (not (<= (+ (- |K:42:43:50|) 1) 0))
                     (= (+ (* 2 |x':36:45:52|) (* 2 |K:42:43:50|)
                             (- |havoc:2|) (- havoc)) 0))
               (or (and (= |K:42:43:50| 0)
                          (= (+ (- |y':37:44:51|) |havoc:2|) 0)
                          (= (+ (- |x':36:45:52|) havoc) 0))
                     (and (<= (+ (- |K:42:43:50|) 1) 0)
                            (= (+ |havoc:2| (- havoc)) 0)
                            (<= (+ (- havoc) 1) 0)
                            (= (+ (- |x':36:45:52|) |y':37:44:51|) 0)
                            (<= (- |x':36:45:52|) 0)))
               (<= (- |K:42:43:50|) 0) (<= (- |x':36:45:52|) 0)
               (<= (- |y':37:44:51|) 0)
               (= (+ |x':36:45:52| (- |y':37:44:51|)) 0)
               (or (and (or (< |x':36:45:52| 0) (< (- |x':36:45:52|) 0))
                          (< (+ |x':36:45:52| -1) 0)
                          (= (+ (- |phi_x:35:46:53|) |x':36:45:52| -1) 0)
                          (= (+ (- |phi_y:34:47:54|) |y':37:44:51| -1) 0))
                     (and (or (and (or (< |x':36:45:52| 0)
                                         (< (- |x':36:45:52|) 0))
                                     (<= (+ (- |x':36:45:52|) 1) 0)
                                     (< (+ |y':37:44:51| -1) 0)
                                     (= (+ (- |phi_x:33:48:55|) |x':36:45:52|
                                             -1) 0)
                                     (= (+ (- |phi_y:32:49:56|) |y':37:44:51|
                                             -1) 0))
                                (and (<= (- |x':36:45:52|) 0)
                                       (<= |x':36:45:52| 0)
                                       (= (+ (- |phi_x:33:48:55|)
                                               |x':36:45:52|) 0)
                                       (= (+ (- |phi_y:32:49:56|)
                                               |y':37:44:51|) 0)))
                            (= (+ |phi_x:33:48:55| (- |phi_x:35:46:53|)) 0)
                            (= (+ |phi_y:32:49:56| (- |phi_y:34:47:54|)) 0)))
               (not (= |phi_y:34:47:54| 0))))
(check-sat)
